    3
MD iter: 0
    O     -0.03671709     -0.69843850      0.01875295      6.59713330     -2.43814260      0.64918873      1.27187833
    H      0.51076600     -0.15537743      0.59189177      0.70150717     28.28679510     -0.38332598    -20.55936317
    H      0.07240928     -0.40808324     -0.88974374      0.70135953     10.43806904     -9.92769738      0.35820046
    3
MD iter: 1
    O     -0.03796030     -0.69814510      0.01940434      6.59548703     -2.51773325      0.54437912      1.34367333
    H      0.52515354     -0.15529775      0.58170385      0.70255944     29.06300393      0.46800818    -20.27171328
    H      0.07776753     -0.41282301     -0.88990179      0.70195353     10.92599339     -9.11434710     -1.06976479
    3
MD iter: 2
    O     -0.03923482     -0.69789412      0.02009662      6.59366570     -2.55819888      0.48455191      1.43055480
    H      0.53982900     -0.15490942      0.57162006      0.70368893     29.37710175      0.80683609    -20.17757389
    H      0.08333527     -0.41719759     -0.89081350      0.70264537     11.25460867     -8.50294328     -2.54383705
    3
MD iter: 3
    O     -0.04051850     -0.69766055      0.02083489      6.59173729     -2.55107690      0.47741182      1.52126138
    H      0.55453064     -0.15449092      0.56152628      0.70483154     29.13698553      0.57632057    -20.31463399
    H      0.08902214     -0.42132595     -0.89244563      0.70343118     11.38160698     -8.15902219     -3.84746380
    3
MD iter: 4
    O     -0.04178590     -0.69741671      0.02161788      6.58978477     -2.49216900      0.52560952      1.60280425
    H      0.56896599     -0.15433310      0.55130542      0.70592061     28.31465237     -0.21719893    -20.66031984
    H      0.09471688     -0.42535661     -0.89466097      0.70429463     11.26830960     -8.13102365     -4.79691830
    3
MD iter: 5
    O     -0.04301067     -0.69713494      0.02243770      6.58790092     -2.38188278      0.62672693      1.66273175
    H      0.58284529     -0.15470812      0.54086596      0.70689134     26.94661081     -1.51036044    -21.14209872
    H      0.10029045     -0.42945698     -0.89724255      0.70520774     10.88468215     -8.44390366     -5.26696399
    3
MD iter: 6
    O     -0.04416778     -0.69678998      0.02328062      6.58618049     -2.22499161      0.77390538      1.69101034
    H      0.59591260     -0.15584346      0.53016332      0.70769176     25.12595110     -3.19525581    -21.65324188
    H      0.10560156     -0.43380051     -0.89992793      0.70612775     10.21344945     -9.09663413     -5.20496792
    3
MD iter: 7
    O     -0.04523566     -0.69636103      0.02412871      6.58470972     -2.02998966      0.95686414      1.68125730
    H      0.60797124     -0.15790337      0.51921272      0.70828718     22.98947319     -5.13453570    -22.06978484
    H      0.11050390     -0.43855361     -0.90244752      0.70700310      9.25272379    -10.06327659     -4.63351799
    3
MD iter: 8
    O     -0.04619777     -0.69583312      0.02496187      6.58355701     -1.80820083      1.16309985      1.63125620
    H      0.61890207     -0.16097800      0.50809354      0.70865822     20.70268492     -7.17654006    -22.26601143
    H      0.11485429     -0.44386379     -0.90456145      0.70778477      8.01685402    -11.29690092     -3.64312711
    3
MD iter: 9
    O     -0.04704386     -0.69519793      0.02575996      6.58276418     -1.57274949      1.37912226      1.54286155
    H      0.62867393     -0.16507991      0.49694670      0.70881056     18.44431707     -9.16917328    -22.12744264
    H      0.11852076     -0.44985051     -0.90609064      0.70842525      6.53556328    -12.73533794     -2.37772939
    3
MD iter: 10
    O     -0.04777052     -0.69445400      0.02650474      6.58234139     -1.33742874      1.59165485      1.42153980
    H      0.63734639     -0.17014717      0.48596610      0.70877048     16.39048251    -10.97257889    -21.56166917
    H      0.12138985     -0.45659913     -0.90693918      0.70888813      4.85181325    -14.30757399     -1.01655708
    3
MD iter: 11
    O     -0.04838129     -0.69360628      0.02718150      6.58226818     -1.11545177      1.78878814      1.27574820
    H      0.64506441     -0.17605249      0.47538504      0.70858009     14.69786899    -12.47118809    -20.50772718
    H      0.12337257     -0.46415808     -0.90710720      0.70915174      3.01878073    -15.94002028      0.24509963
    3
MD iter: 12
    O     -0.04888597     -0.69266521      0.02778048      6.58248817     -0.91810197      1.96106538      1.11619224
    H      0.65204426     -0.18261836      0.46545837      0.70829745     13.48602887    -13.58505868    -18.94422754
    H      0.12440863     -0.47253915     -0.90669408      0.70921439      1.09612647    -17.56241820      1.21581708
    3
MD iter: 13
    O     -0.04929939     -0.69164521      0.02829770      6.58293554     -0.75338375      2.10241923      0.95491992
    H      0.65855044     -0.18963755      0.45644081      0.70797554     12.82025822    -14.27936816    -16.89553834
    H      0.12446870     -0.48172050     -0.90589138      0.70908892     -0.85431185    -19.11322303      1.72860594
    3
MD iter: 14
    O     -0.04963936     -0.69056279      0.02873540      6.58352735     -0.62488492      2.21081075      0.80415492
    H      0.66486452     -0.19689773      0.44856283      0.70766656     12.69835235    -14.56984510    -14.43431299
    H      0.12355432     -0.49165237     -0.90496547      0.70880609     -2.77334482    -20.54432173      1.66197145
    3
MD iter: 15
    O     -0.04992427     -0.68943440      0.02910185      6.58418457     -0.53115771      2.28837334      0.67482856
    H      0.67124879     -0.20420740      0.44200649      0.70740999     13.04574540    -14.52148603    -11.67841112
    H      0.12169535     -0.50226482     -0.90422941      0.70840543     -4.60940124    -21.82460240      0.96015196
    3
MD iter: 16
    O     -0.05017052     -0.68827442      0.02941023      6.58484165     -0.46584025      2.34094858      0.57501158
    H      0.67791026     -0.21141921      0.43688442      0.70722175     13.72166202    -14.23969020     -8.78164741
    H      0.11894492     -0.51347697     -0.90400532      0.70793660     -6.32275093    -22.94144742     -0.35122488
    3
MD iter: 17
    O     -0.05039011     -0.68709345      0.02967686      6.58545358     -0.41867225      2.37698257      0.50853803
    H      0.68497045     -0.21844709      0.43322485      0.70710358     14.53774017    -13.85404163     -5.91847453
    H      0.11537260     -0.52520627     -0.90458064      0.70744284     -7.88799545    -23.89942167     -2.15860263
    3
MD iter: 18
    O     -0.05058919     -0.68589743      0.02991877      6.58600165     -0.37735599      2.40591290      0.47414265
    H      0.69244800     -0.22527325      0.43096595      0.70703407     15.28759388    -13.49693208     -3.26412871
    H      0.11105692     -0.53737639     -0.90616393      0.70696428     -9.29407267    -24.71602979     -4.26664884
    3
MD iter: 19
    O     -0.05076747     -0.68468754      0.03015101      6.58649316     -0.32986550      2.43640141      0.46551378
    H      0.70025805     -0.23194402      0.42996072      0.70697762     15.78062333    -13.28214444     -0.97420486
    H      0.10607853     -0.54992230     -0.90884729      0.70652922    -10.54139046    -25.41506440     -6.41952093
    3
MD iter: 20
    O     -0.05091905     -0.68346103      0.03038428      6.58695811     -0.26667429      2.47481678      0.47244626
    H      0.70822863     -0.23855540      0.42999174      0.70689011     15.87214498    -13.28838036      0.83223241
    H      0.10051553     -0.56279146     -0.91258345      0.70615178    -11.63657416    -26.01897742     -8.33606634
