
     Program PWSCF v.7.5 starts on 19Sep2026 at 14:33:11 

     This program is part of the open-source Quantum ESPRESSO suite
     for quantum simulation of materials; please cite
         "P. Giannozzi et al., J. Phys.:Condens. Matter 21 395502 (2009);
         "P. Giannozzi et al., J. Phys.:Condens. Matter 29 465901 (2017);
         "P. Giannozzi et al., J. Chem. Phys. 152 154105 (2020);
          URL http://www.quantum-espresso.org", 
     in publications or presentations arising from this work. More details at
     http://www.quantum-espresso.org/quote

     Parallel version (MPI & OpenMP), running on       2 processor cores
     Number of MPI processes:                 2
     Threads/MPI process:                     1

     MPI processes distributed on     1 nodes
     2623 MiB available memory on the printing compute node when the environment starts

     Reading input from pw.in
Warning: card &CELL ignored
Warning: card &FCP ignored
Warning: card &RISM ignored

     Current dimensions of program PWSCF are:
     Max number of different atomic species (ntypx) = 10
     Max number of k-points (npk) =  40000
     Max angular momentum in pseudopotentials (lmaxx) =  4

     R & G space division:  proc/nbgrp/npool/nimage =       2
     Subspace diagonalization in iterative solution of the eigenvalue problem:
     a serial algorithm will be used


     Parallelization info
     --------------------
     sticks:   dense  smooth     PW     G-vecs:    dense   smooth      PW
     Min         216     216     54                 2992     2992     373
     Max         217     217     55                 2993     2993     376
     Sum         433     433    109                 5985     5985     749

     Using Slab Decomposition



     bravais-lattice index     =            0
     lattice parameter (alat)  =       7.2558  a.u.
     unit-cell volume          =     270.1072 (a.u.)^3
     number of atoms/cell      =            2
     number of atomic types    =            1
     number of electrons       =         8.00
     number of Kohn-Sham states=            4
     kinetic-energy cutoff     =      30.0000  Ry
     charge density cutoff     =     120.0000  Ry
     scf convergence threshold =      1.0E-06
     mixing beta               =       0.7000
     number of iterations used =            8  plain     mixing
     energy convergence thresh.=      0.0E+00
     force convergence thresh. =      0.0E+00
     Exchange-correlation= PBE
                           (   1   4   3   4   0   0   0)
     nstep                     =           20


     celldm(1)=   7.255773  celldm(2)=   0.000000  celldm(3)=   0.000000
     celldm(4)=   0.000000  celldm(5)=   0.000000  celldm(6)=   0.000000

     crystal axes: (cart. coord. in units of alat)
               a(1) = (   0.000000   0.707107   0.707107 )  
               a(2) = (   0.707107   0.000000   0.707107 )  
               a(3) = (   0.707107   0.707107   0.000000 )  

     reciprocal axes: (cart. coord. in units 2 pi/alat)
               b(1) = ( -0.707107  0.707107  0.707107 )  
               b(2) = (  0.707107 -0.707107  0.707107 )  
               b(3) = (  0.707107  0.707107 -0.707107 )  


     PseudoPot. # 1 for Si read from file:
     ./pseudo/Si.pbe-n-rrkjus_psl.1.0.0.UPF
     MD5 check sum: fa25574f73a70a4139f2adfbefec430c
     Pseudo is Ultrasoft + core correction, Zval =  4.0
     Generated using &quot;atomic&quot; code by A. Dal Corso  v.6.3
     Using radial grid of 1141 points,  6 beta functions with: 
                l(1) =   0
                l(2) =   0
                l(3) =   1
                l(4) =   1
                l(5) =   2
                l(6) =   2
     Q(r) pseudized with 0 coefficients 


     atomic species   valence    mass     pseudopotential
     Si                4.00    28.08500     Si( 1.00)

     No symmetry found



   Cartesian axes

     site n.     atom                  positions (alat units)
         1        Si     tau(   1) = (   0.0000000   0.0000000   0.0000000  )
         2        Si     tau(   2) = (   0.3535534   0.3535534   0.3535534  )

     number of k points=     1
                       cart. coord. in units 2pi/alat
        k(    1) = (   0.0000000   0.0000000   0.0000000), wk =   2.0000000

     Dense  grid:     5985 G-vectors     FFT dimensions: (  25,  25,  25)

     Estimated max dynamical RAM per process >      12.09 MB

     Estimated total dynamical RAM >      24.17 MB

     Check: negative core charge=   -0.000003

     Initial potential from superposition of free atoms

     starting charge       7.9989, renormalised to       8.0000
     Starting wfcs are    8 randomized atomic wfcs

     total cpu time spent up to now is        0.4 secs

     per-process dynamical memory:    10.4 Mb

     Self-consistent Calculation

     iteration #  1     ecut=    30.00 Ry     beta= 0.70
     Davidson diagonalization with overlap
     ethr =  1.00E-02,  avg # of iterations =  2.0

     total cpu time spent up to now is        0.4 secs

     total energy              =     -21.56892548 Ry
     estimated scf accuracy    <       0.30630111 Ry

     iteration #  2     ecut=    30.00 Ry     beta= 0.70
     Davidson diagonalization with overlap
     ethr =  3.83E-03,  avg # of iterations =  1.0

     total cpu time spent up to now is        0.4 secs

     total energy              =     -21.58128306 Ry
     estimated scf accuracy    <       0.01775821 Ry

     iteration #  3     ecut=    30.00 Ry     beta= 0.70
     Davidson diagonalization with overlap
     ethr =  2.22E-04,  avg # of iterations =  3.0

     total cpu time spent up to now is        0.5 secs

     total energy              =     -21.58693841 Ry
     estimated scf accuracy    <       0.00062904 Ry

     iteration #  4     ecut=    30.00 Ry     beta= 0.70
     Davidson diagonalization with overlap
     ethr =  7.86E-06,  avg # of iterations =  5.0

     total cpu time spent up to now is        0.5 secs

     total energy              =     -21.58741455 Ry
     estimated scf accuracy    <       0.00008059 Ry

     iteration #  5     ecut=    30.00 Ry     beta= 0.70
     Davidson diagonalization with overlap
     ethr =  1.01E-06,  avg # of iterations =  2.0

     total cpu time spent up to now is        0.5 secs

     total energy              =     -21.58742922 Ry
     estimated scf accuracy    <       0.00000548 Ry

     iteration #  6     ecut=    30.00 Ry     beta= 0.70
     Davidson diagonalization with overlap
     ethr =  6.86E-08,  avg # of iterations =  6.0

     total cpu time spent up to now is        0.6 secs

     End of self-consistent calculation

          k = 0.0000 0.0000 0.0000 (   749 PWs)   bands (ev):

    -4.9568   7.1984   7.1992   7.2005

     highest occupied level (ev):     7.2005

!    total energy              =     -21.58743264 Ry
     estimated scf accuracy    <       0.00000038 Ry

     convergence has been achieved in   6 iterations

     Forces acting on atoms (cartesian axes, Ry/au):

     atom    1 type  1   force =     0.00000046   -0.00004501    0.00002815
     atom    2 type  1   force =    -0.00000046    0.00004501   -0.00002815

     Total force =     0.000075     Total SCF correction =     0.000281
     SCF correction compared to forces is large: reduce conv_thr to get better values


     Computing stress (Cartesian axis) and pressure

          total   stress  (Ry/bohr**3)                   (kbar)     P=      433.66
   0.00294769  -0.00000162  -0.00000041          433.62       -0.24       -0.06
  -0.00000162   0.00294788   0.00000104           -0.24      433.65        0.15
  -0.00000041   0.00000104   0.00294823           -0.06        0.15      433.70


     Molecular Dynamics Calculation

     Starting temperature  =   300.00 K

     temperature is controlled by soft (Berendsen) velocity rescaling
     Characteristic time = 20*timestep
     mass Si               =    28.09
     Time step             =    41.34 a.u.,  2.0000 femto-seconds

     Entering Dynamics:    iteration =     1
                           time      =   0.0020 pico-seconds


     Soft (Berendsen) velocity rescaling

ATOMIC_POSITIONS (crystal)
Si              -0.0003737065       -0.0001727793        0.0021318841
Si               0.2503737065        0.2501727793        0.2478681159


     kinetic energy (Ekin) =           0.00285013 Ry
     temperature           =         300.00000000 K 
     Ekin + Etot (const)   =         -21.58458251 Ry
     Ions kinetic stress =            1.03 (kbar)
                                      1.65           1.48          -0.46
                                      1.48           1.33          -0.41
                                     -0.46          -0.41           0.13



     Linear momentum :   -0.0000000000   -0.0000000000    0.0000000000

     Writing config-only to output data dir ./tmp/adit.save/ :
     XML data file
     NEW-OLD atomic charge density approx. for the potential

     Check: negative core charge=   -0.000003

     total cpu time spent up to now is        0.7 secs

     per-process dynamical memory:    18.8 Mb

     Self-consistent Calculation

     iteration #  1     ecut=    30.00 Ry     beta= 0.70
     Davidson diagonalization with overlap
     ethr =  1.00E-06,  avg # of iterations =  5.0

     total cpu time spent up to now is        0.8 secs

     total energy              =     -21.58720341 Ry
     estimated scf accuracy    <       0.00002045 Ry

     iteration #  2     ecut=    30.00 Ry     beta= 0.70
     Davidson diagonalization with overlap
     ethr =  2.56E-07,  avg # of iterations =  2.0

     total cpu time spent up to now is        0.8 secs

     total energy              =     -21.58720771 Ry
     estimated scf accuracy    <       0.00000162 Ry

     iteration #  3     ecut=    30.00 Ry     beta= 0.70
     Davidson diagonalization with overlap
     ethr =  2.02E-08,  avg # of iterations =  2.0

     total cpu time spent up to now is        0.8 secs

     End of self-consistent calculation

          k = 0.0000 0.0000 0.0000 (   749 PWs)   bands (ev):

    -4.9574   7.1301   7.1835   7.2840

     highest occupied level (ev):     7.2840

!    total energy              =     -21.58720798 Ry
     estimated scf accuracy    <       0.00000010 Ry

     convergence has been achieved in   3 iterations

     Forces acting on atoms (cartesian axes, Ry/au):

     atom    1 type  1   force =    -0.01194884   -0.01069508    0.00320489
     atom    2 type  1   force =     0.01194884    0.01069508   -0.00320489

     Total force =     0.023127     Total SCF correction =     0.000168


     Computing stress (Cartesian axis) and pressure

          total   stress  (Ry/bohr**3)                   (kbar)     P=      433.80
   0.00294849  -0.00000838   0.00002948          433.74       -1.23        4.34
  -0.00000838   0.00294873   0.00003246           -1.23      433.77        4.77
   0.00002948   0.00003246   0.00294942            4.34        4.77      433.87


     Entering Dynamics:    iteration =     2
                           time      =   0.0040 pico-seconds


     Soft (Berendsen) velocity rescaling

ATOMIC_POSITIONS (crystal)
Si              -0.0007184019       -0.0003328632        0.0040955778
Si               0.2507184019        0.2503328632        0.2459044222


     kinetic energy (Ekin) =           0.00262855 Ry
     temperature           =         276.67685308 K 
     Ekin + Etot (const)   =         -21.58457943 Ry
     Ions kinetic stress =            0.95 (kbar)
                                      1.52           1.36          -0.42
                                      1.36           1.22          -0.38
                                     -0.42          -0.38           0.12



     Linear momentum :   -0.0000000000   -0.0000000000    0.0000000000

     Writing config-only to output data dir ./tmp/adit.save/ :
     XML data file
     NEW-OLD atomic charge density approx. for the potential

     Check: negative core charge=   -0.000003

     total cpu time spent up to now is        1.0 secs

     per-process dynamical memory:    18.8 Mb

     Self-consistent Calculation

     iteration #  1     ecut=    30.00 Ry     beta= 0.70
     Davidson diagonalization with overlap
     ethr =  1.00E-06,  avg # of iterations =  5.0

     total cpu time spent up to now is        1.0 secs

     total energy              =     -21.58660210 Ry
     estimated scf accuracy    <       0.00001725 Ry

     iteration #  2     ecut=    30.00 Ry     beta= 0.70
     Davidson diagonalization with overlap
     ethr =  2.16E-07,  avg # of iterations =  2.0

     total cpu time spent up to now is        1.0 secs

     total energy              =     -21.58660561 Ry
     estimated scf accuracy    <       0.00000136 Ry

     iteration #  3     ecut=    30.00 Ry     beta= 0.70
     Davidson diagonalization with overlap
     ethr =  1.70E-08,  avg # of iterations =  2.0

     total cpu time spent up to now is        1.1 secs

     End of self-consistent calculation

          k = 0.0000 0.0000 0.0000 (   749 PWs)   bands (ev):

    -4.9584   7.0676   7.1697   7.3618

     highest occupied level (ev):     7.3618

!    total energy              =     -21.58660588 Ry
     estimated scf accuracy    <       0.00000009 Ry

     convergence has been achieved in   3 iterations

     Forces acting on atoms (cartesian axes, Ry/au):

     atom    1 type  1   force =    -0.02286999   -0.02049246    0.00589441
     atom    2 type  1   force =     0.02286999    0.02049246   -0.00589441

     Total force =     0.044220     Total SCF correction =     0.000175


     Computing stress (Cartesian axis) and pressure

          total   stress  (Ry/bohr**3)                   (kbar)     P=      434.07
   0.00294938  -0.00001511   0.00005442          433.87       -2.22        8.00
  -0.00001511   0.00295016   0.00006053           -2.22      433.98        8.90
   0.00005442   0.00006053   0.00295271            8.00        8.90      434.36


     Entering Dynamics:    iteration =     3
                           time      =   0.0060 pico-seconds


     Soft (Berendsen) velocity rescaling

ATOMIC_POSITIONS (crystal)
Si              -0.0010099999       -0.0004704008        0.0057429057
Si               0.2510099999        0.2504704008        0.2442570943


     kinetic energy (Ekin) =           0.00204493 Ry
     temperature           =         215.24615507 K 
     Ekin + Etot (const)   =         -21.58456094 Ry
     Ions kinetic stress =            0.74 (kbar)
                                      1.18           1.06          -0.33
                                      1.06           0.95          -0.30
                                     -0.33          -0.30           0.09



     Linear momentum :   -0.0000000000    0.0000000000    0.0000000000

     Writing config-only to output data dir ./tmp/adit.save/ :
     XML data file
     NEW-OLD atomic charge density approx. for the potential

     Check: negative core charge=   -0.000003

     total cpu time spent up to now is        1.2 secs

     per-process dynamical memory:    18.8 Mb

     Self-consistent Calculation

     iteration #  1     ecut=    30.00 Ry     beta= 0.70
     Davidson diagonalization with overlap
     ethr =  1.00E-06,  avg # of iterations =  4.0

     total cpu time spent up to now is        1.3 secs

     total energy              =     -21.58580989 Ry
     estimated scf accuracy    <       0.00001233 Ry

     iteration #  2     ecut=    30.00 Ry     beta= 0.70
     Davidson diagonalization with overlap
     ethr =  1.54E-07,  avg # of iterations =  2.0

     total cpu time spent up to now is        1.3 secs

     End of self-consistent calculation

          k = 0.0000 0.0000 0.0000 (   749 PWs)   bands (ev):

    -4.9597   7.0150   7.1583   7.4274

     highest occupied level (ev):     7.4274

!    total energy              =     -21.58581270 Ry
     estimated scf accuracy    <       0.00000098 Ry

     convergence has been achieved in   2 iterations

     Forces acting on atoms (cartesian axes, Ry/au):

     atom    1 type  1   force =    -0.03211910   -0.02876811    0.00798636
     atom    2 type  1   force =     0.03211910    0.02876811   -0.00798636

     Total force =     0.062016     Total SCF correction =     0.000333


     Computing stress (Cartesian axis) and pressure

          total   stress  (Ry/bohr**3)                   (kbar)     P=      434.45
   0.00295058  -0.00002043   0.00007618          434.04       -3.00       11.21
  -0.00002043   0.00295211   0.00008513           -3.00      434.27       12.52
   0.00007618   0.00008513   0.00295739           11.21       12.52      435.05


     Entering Dynamics:    iteration =     4
                           time      =   0.0080 pico-seconds


     Soft (Berendsen) velocity rescaling

ATOMIC_POSITIONS (crystal)
Si              -0.0012306856       -0.0005791248        0.0069582309
Si               0.2512306856        0.2505791248        0.2430417691


     kinetic energy (Ekin) =           0.00129037 Ry
     temperature           =         135.82250070 K 
     Ekin + Etot (const)   =         -21.58452233 Ry
     Ions kinetic stress =            0.47 (kbar)
                                      0.74           0.67          -0.22
                                      0.67           0.60          -0.19
                                     -0.22          -0.19           0.06



     Linear momentum :   -0.0000000000   -0.0000000000   -0.0000000000

     Writing config-only to output data dir ./tmp/adit.save/ :
     XML data file
     NEW-OLD atomic charge density approx. for the potential

     Check: negative core charge=   -0.000003

     total cpu time spent up to now is        1.5 secs

     per-process dynamical memory:    18.8 Mb

     Self-consistent Calculation

     iteration #  1     ecut=    30.00 Ry     beta= 0.70
     Davidson diagonalization with overlap
     ethr =  1.00E-06,  avg # of iterations =  3.0

     Threshold (ethr) on eigenvalues was too large:
     Diagonalizing with lowered threshold

     Davidson diagonalization with overlap
     ethr =  9.41E-08,  avg # of iterations =  3.0

     total cpu time spent up to now is        1.5 secs

     total energy              =     -21.58506291 Ry
     estimated scf accuracy    <       0.00000608 Ry

     iteration #  2     ecut=    30.00 Ry     beta= 0.70
     Davidson diagonalization with overlap
     ethr =  7.60E-08,  avg # of iterations =  2.0

     total cpu time spent up to now is        1.5 secs

     End of self-consistent calculation

          k = 0.0000 0.0000 0.0000 (   749 PWs)   bands (ev):

    -4.9608   6.9778   7.1497   7.4751

     highest occupied level (ev):     7.4751

!    total energy              =     -21.58506408 Ry
     estimated scf accuracy    <       0.00000054 Ry

     convergence has been achieved in   2 iterations

     Forces acting on atoms (cartesian axes, Ry/au):

     atom    1 type  1   force =    -0.03860484   -0.03457390    0.00947723
     atom    2 type  1   force =     0.03860484    0.03457390   -0.00947723

     Total force =     0.074505     Total SCF correction =     0.000220


     Computing stress (Cartesian axis) and pressure

          total   stress  (Ry/bohr**3)                   (kbar)     P=      434.77
   0.00295141  -0.00002420   0.00009105          434.17       -3.56       13.39
  -0.00002420   0.00295353   0.00010171           -3.56      434.48       14.96
   0.00009105   0.00010171   0.00296149           13.39       14.96      435.65


     Entering Dynamics:    iteration =     5
                           time      =   0.0100 pico-seconds


     Soft (Berendsen) velocity rescaling

ATOMIC_POSITIONS (crystal)
Si              -0.0013700489       -0.0006556488        0.0076719257
Si               0.2513700489        0.2506556488        0.2423280743


     kinetic energy (Ekin) =           0.00059339 Ry
     temperature           =          62.45928721 K 
     Ekin + Etot (const)   =         -21.58447069 Ry
     Ions kinetic stress =            0.22 (kbar)
                                      0.34           0.30          -0.11
                                      0.30           0.27          -0.10
                                     -0.11          -0.10           0.03



     Linear momentum :   -0.0000000000   -0.0000000000   -0.0000000000

     Writing config-only to output data dir ./tmp/adit.save/ :
     XML data file
     NEW-OLD atomic charge density approx. for the potential

     Check: negative core charge=   -0.000003

     total cpu time spent up to now is        1.7 secs

     per-process dynamical memory:    18.8 Mb

     Self-consistent Calculation

     iteration #  1     ecut=    30.00 Ry     beta= 0.70
     Davidson diagonalization with overlap
     ethr =  1.00E-06,  avg # of iterations =  3.0

     Threshold (ethr) on eigenvalues was too large:
     Diagonalizing with lowered threshold

     Davidson diagonalization with overlap
     ethr =  3.17E-08,  avg # of iterations =  3.0

     total cpu time spent up to now is        1.7 secs

     total energy              =     -21.58456578 Ry
     estimated scf accuracy    <       0.00000203 Ry

     iteration #  2     ecut=    30.00 Ry     beta= 0.70
     Davidson diagonalization with overlap
     ethr =  2.54E-08,  avg # of iterations =  2.0

     total cpu time spent up to now is        1.8 secs

     End of self-consistent calculation

          k = 0.0000 0.0000 0.0000 (   749 PWs)   bands (ev):

    -4.9615   6.9566   7.1441   7.5031

     highest occupied level (ev):     7.5031

!    total energy              =     -21.58456616 Ry
     estimated scf accuracy    <       0.00000018 Ry

     convergence has been achieved in   2 iterations

     Forces acting on atoms (cartesian axes, Ry/au):

     atom    1 type  1   force =    -0.04232429   -0.03790981    0.01040475
     atom    2 type  1   force =     0.04232429    0.03790981   -0.01040475

     Total force =     0.081692     Total SCF correction =     0.000115


     Computing stress (Cartesian axis) and pressure

          total   stress  (Ry/bohr**3)                   (kbar)     P=      434.99
   0.00295207  -0.00002607   0.00009934          434.26       -3.83       14.61
  -0.00002607   0.00295464   0.00011097           -3.83      434.64       16.32
   0.00009934   0.00011097   0.00296430           14.61       16.32      436.06


     Entering Dynamics:    iteration =     6
                           time      =   0.0120 pico-seconds


     Soft (Berendsen) velocity rescaling

ATOMIC_POSITIONS (crystal)
Si              -0.0014256619       -0.0007001551        0.0078607658
Si               0.2514256619        0.2507001551        0.2421392342


     kinetic energy (Ekin) =           0.00013746 Ry
     temperature           =          14.46864496 K 
     Ekin + Etot (const)   =         -21.58442871 Ry
     Ions kinetic stress =            0.05 (kbar)
                                      0.08           0.07          -0.03
                                      0.07           0.06          -0.03
                                     -0.03          -0.03           0.01



     Linear momentum :    0.0000000000   -0.0000000000   -0.0000000000

     Writing config-only to output data dir ./tmp/adit.save/ :
     XML data file
     NEW-OLD atomic charge density approx. for the potential

     Check: negative core charge=   -0.000003

     total cpu time spent up to now is        1.9 secs

     per-process dynamical memory:    18.8 Mb

     Self-consistent Calculation

     iteration #  1     ecut=    30.00 Ry     beta= 0.70
     Davidson diagonalization with overlap
     ethr =  1.00E-06,  avg # of iterations =  2.0

     Threshold (ethr) on eigenvalues was too large:
     Diagonalizing with lowered threshold

     Davidson diagonalization with overlap
     ethr =  2.01E-09,  avg # of iterations =  4.0

     total cpu time spent up to now is        2.0 secs

     End of self-consistent calculation

          k = 0.0000 0.0000 0.0000 (   749 PWs)   bands (ev):

    -4.9617   6.9528   7.1417   7.5096

     highest occupied level (ev):     7.5096

!    total energy              =     -21.58444000 Ry
     estimated scf accuracy    <       0.00000012 Ry

     convergence has been achieved in   1 iterations

     Forces acting on atoms (cartesian axes, Ry/au):

     atom    1 type  1   force =    -0.04307033   -0.03859176    0.01095915
     atom    2 type  1   force =     0.04307033    0.03859176   -0.01095915

     Total force =     0.083240     Total SCF correction =     0.000041


     Computing stress (Cartesian axis) and pressure

          total   stress  (Ry/bohr**3)                   (kbar)     P=      435.04
   0.00295221  -0.00002814   0.00010079          434.28       -4.14       14.83
  -0.00002814   0.00295487   0.00011255           -4.14      434.68       16.56
   0.00010079   0.00011255   0.00296489           14.83       16.56      436.15


     Entering Dynamics:    iteration =     7
                           time      =   0.0140 pico-seconds


     Soft (Berendsen) velocity rescaling

ATOMIC_POSITIONS (crystal)
Si              -0.0014036005       -0.0007207202        0.0075242795
Si               0.2514036005        0.2507207202        0.2424757205


     kinetic energy (Ekin) =           0.00000583 Ry
     temperature           =           0.61343998 K 
     Ekin + Etot (const)   =         -21.58443417 Ry
     Ions kinetic stress =            0.00 (kbar)
                                      0.00           0.00           0.00
                                      0.00           0.00           0.00
                                      0.00           0.00           0.00



     Linear momentum :   -0.0000000000   -0.0000000000   -0.0000000000

     Writing config-only to output data dir ./tmp/adit.save/ :
     XML data file
     NEW-OLD atomic charge density approx. for the potential

     Check: negative core charge=   -0.000003

     total cpu time spent up to now is        2.2 secs

     per-process dynamical memory:    18.8 Mb

     Self-consistent Calculation

     iteration #  1     ecut=    30.00 Ry     beta= 0.70
     Davidson diagonalization with overlap
     ethr =  1.00E-06,  avg # of iterations =  2.0

     Threshold (ethr) on eigenvalues was too large:
     Diagonalizing with lowered threshold

     Davidson diagonalization with overlap
     ethr =  1.14E-08,  avg # of iterations =  3.0

     total cpu time spent up to now is        2.2 secs

     End of self-consistent calculation

          k = 0.0000 0.0000 0.0000 (   749 PWs)   bands (ev):

    -4.9613   6.9649   7.1409   7.4976

     highest occupied level (ev):     7.4976

!    total energy              =     -21.58471498 Ry
     estimated scf accuracy    <       0.00000071 Ry

     convergence has been achieved in   1 iterations

     Forces acting on atoms (cartesian axes, Ry/au):

     atom    1 type  1   force =    -0.04076020   -0.03656121    0.01112602
     atom    2 type  1   force =     0.04076020    0.03656121   -0.01112602

     Total force =     0.079018     Total SCF correction =     0.000283


     Computing stress (Cartesian axis) and pressure

          total   stress  (Ry/bohr**3)                   (kbar)     P=      434.92
   0.00295197  -0.00002729   0.00009173          434.25       -4.01       13.49
  -0.00002729   0.00295437   0.00010230           -4.01      434.60       15.05
   0.00009173   0.00010230   0.00296327           13.49       15.05      435.91


     Entering Dynamics:    iteration =     8
                           time      =   0.0160 pico-seconds


     Soft (Berendsen) velocity rescaling

ATOMIC_POSITIONS (crystal)
Si              -0.0011926943       -0.0007792972        0.0052528649
Si               0.2511926943        0.2507792972        0.2447471351


     kinetic energy (Ekin) =           0.00299304 Ry
     temperature           =         315.04227090 K 
     Ekin + Etot (const)   =         -21.58172194 Ry
     Ions kinetic stress =            1.09 (kbar)
                                      1.83           1.62          -0.07
                                      1.62           1.43          -0.06
                                     -0.07          -0.06           0.00



     Linear momentum :   -0.0000000000   -0.0000000000   -0.0000000000

     Writing config-only to output data dir ./tmp/adit.save/ :
     XML data file
     NEW-OLD atomic charge density approx. for the potential

     Check: negative core charge=   -0.000003

     total cpu time spent up to now is        2.4 secs

     per-process dynamical memory:    18.8 Mb

     Self-consistent Calculation

     iteration #  1     ecut=    30.00 Ry     beta= 0.70
     Davidson diagonalization with overlap
     ethr =  1.00E-06,  avg # of iterations =  5.0

     total cpu time spent up to now is        2.5 secs

     total energy              =     -21.58618230 Ry
     estimated scf accuracy    <       0.00002542 Ry

     iteration #  2     ecut=    30.00 Ry     beta= 0.70
     Davidson diagonalization with overlap
     ethr =  3.18E-07,  avg # of iterations =  2.0

     total cpu time spent up to now is        2.5 secs

     total energy              =     -21.58618707 Ry
     estimated scf accuracy    <       0.00000217 Ry

     iteration #  3     ecut=    30.00 Ry     beta= 0.70
     Davidson diagonalization with overlap
     ethr =  2.71E-08,  avg # of iterations =  2.0

     total cpu time spent up to now is        2.5 secs

     End of self-consistent calculation

          k = 0.0000 0.0000 0.0000 (   749 PWs)   bands (ev):

    -4.9589   7.0531   7.1439   7.4032

     highest occupied level (ev):     7.4032

!    total energy              =     -21.58618743 Ry
     estimated scf accuracy    <       0.00000012 Ry

     convergence has been achieved in   3 iterations

     Forces acting on atoms (cartesian axes, Ry/au):

     atom    1 type  1   force =    -0.02680326   -0.02426354    0.01121971
     atom    2 type  1   force =     0.02680326    0.02426354   -0.01121971

     Total force =     0.053535     Total SCF correction =     0.000220


     Computing stress (Cartesian axis) and pressure

          total   stress  (Ry/bohr**3)                   (kbar)     P=      434.24
   0.00295008  -0.00002828   0.00006153          433.97       -4.16        9.05
  -0.00002828   0.00295105   0.00006803           -4.16      434.11       10.01
   0.00006153   0.00006803   0.00295452            9.05       10.01      434.63


     Entering Dynamics:    iteration =     9
                           time      =   0.0180 pico-seconds


     Soft (Berendsen) velocity rescaling

ATOMIC_POSITIONS (crystal)
Si              -0.0008925115       -0.0007813262        0.0025788835
Si               0.2508925115        0.2507813262        0.2474211165


     kinetic energy (Ekin) =           0.00442318 Ry
     temperature           =         465.57608788 K 
     Ekin + Etot (const)   =         -21.58176426 Ry
     Ions kinetic stress =            1.61 (kbar)
                                      2.69           2.38          -0.24
                                      2.38           2.11          -0.21
                                     -0.24          -0.21           0.02



     Linear momentum :   -0.0000000000    0.0000000000    0.0000000000

     Writing config-only to output data dir ./tmp/adit.save/ :
     XML data file
     NEW-OLD atomic charge density approx. for the potential

     Check: negative core charge=   -0.000003

     total cpu time spent up to now is        2.7 secs

     per-process dynamical memory:    18.8 Mb

     Self-consistent Calculation

     iteration #  1     ecut=    30.00 Ry     beta= 0.70
     Davidson diagonalization with overlap
     ethr =  1.00E-06,  avg # of iterations =  5.0

     total cpu time spent up to now is        2.7 secs

     total energy              =     -21.58715079 Ry
     estimated scf accuracy    <       0.00003546 Ry

     iteration #  2     ecut=    30.00 Ry     beta= 0.70
     Davidson diagonalization with overlap
     ethr =  4.43E-07,  avg # of iterations =  2.0

     total cpu time spent up to now is        2.8 secs

     total energy              =     -21.58715746 Ry
     estimated scf accuracy    <       0.00000291 Ry

     iteration #  3     ecut=    30.00 Ry     beta= 0.70
     Davidson diagonalization with overlap
     ethr =  3.64E-08,  avg # of iterations =  2.0

     total cpu time spent up to now is        2.8 secs

     End of self-consistent calculation

          k = 0.0000 0.0000 0.0000 (   749 PWs)   bands (ev):

    -4.9575   7.1484   7.1523   7.2970

     highest occupied level (ev):     7.2970

!    total energy              =     -21.58715793 Ry
     estimated scf accuracy    <       0.00000016 Ry

     convergence has been achieved in   3 iterations

     Forces acting on atoms (cartesian axes, Ry/au):

     atom    1 type  1   force =    -0.01072302   -0.01005485    0.01005665
     atom    2 type  1   force =     0.01072302    0.01005485   -0.01005665

     Total force =     0.025188     Total SCF correction =     0.000229


     Computing stress (Cartesian axis) and pressure

          total   stress  (Ry/bohr**3)                   (kbar)     P=      433.80
   0.00294895  -0.00002659   0.00002423          433.81       -3.91        3.56
  -0.00002659   0.00294911   0.00002592           -3.91      433.83        3.81
   0.00002423   0.00002592   0.00294876            3.56        3.81      433.78


     Entering Dynamics:    iteration =    10
                           time      =   0.0200 pico-seconds


     Soft (Berendsen) velocity rescaling

ATOMIC_POSITIONS (crystal)
Si              -0.0005252264       -0.0007222490       -0.0002718481
Si               0.2505252264        0.2507222490        0.2502718481


     kinetic energy (Ekin) =           0.00527740 Ry
     temperature           =         555.49088350 K 
     Ekin + Etot (const)   =         -21.58188052 Ry
     Ions kinetic stress =            1.92 (kbar)
                                      3.18           2.83          -0.42
                                      2.83           2.51          -0.37
                                     -0.42          -0.37           0.06



     Linear momentum :    0.0000000000    0.0000000000   -0.0000000000

     Writing config-only to output data dir ./tmp/adit.save/ :
     XML data file
     NEW-OLD atomic charge density approx. for the potential

     Check: negative core charge=   -0.000003

     total cpu time spent up to now is        3.0 secs

     per-process dynamical memory:    18.8 Mb

     Self-consistent Calculation

     iteration #  1     ecut=    30.00 Ry     beta= 0.70
     Davidson diagonalization with overlap
     ethr =  1.00E-06,  avg # of iterations =  5.0

     total cpu time spent up to now is        3.0 secs

     total energy              =     -21.58732619 Ry
     estimated scf accuracy    <       0.00003881 Ry

     iteration #  2     ecut=    30.00 Ry     beta= 0.70
     Davidson diagonalization with overlap
     ethr =  4.85E-07,  avg # of iterations =  2.0

     total cpu time spent up to now is        3.0 secs

     total energy              =     -21.58733360 Ry
     estimated scf accuracy    <       0.00000322 Ry

     iteration #  3     ecut=    30.00 Ry     beta= 0.70
     Davidson diagonalization with overlap
     ethr =  4.03E-08,  avg # of iterations =  2.0

     total cpu time spent up to now is        3.0 secs

     End of self-consistent calculation

          k = 0.0000 0.0000 0.0000 (   749 PWs)   bands (ev):

    -4.9572   7.1624   7.1763   7.2586

     highest occupied level (ev):     7.2586

!    total energy              =     -21.58733407 Ry
     estimated scf accuracy    <       0.00000019 Ry

     convergence has been achieved in   3 iterations

     Forces acting on atoms (cartesian axes, Ry/au):

     atom    1 type  1   force =     0.00611738    0.00488651    0.00752578
     atom    2 type  1   force =    -0.00611738   -0.00488651   -0.00752578

     Total force =     0.015358     Total SCF correction =     0.000253


     Computing stress (Cartesian axis) and pressure

          total   stress  (Ry/bohr**3)                   (kbar)     P=      433.73
   0.00294837  -0.00001923  -0.00001384          433.72       -2.83       -2.04
  -0.00001923   0.00294860  -0.00001723           -2.83      433.75       -2.53
  -0.00001384  -0.00001723   0.00294828           -2.04       -2.53      433.71


     Entering Dynamics:    iteration =    11
                           time      =   0.0220 pico-seconds


     Soft (Berendsen) velocity rescaling

ATOMIC_POSITIONS (crystal)
Si              -0.0001212299       -0.0006068782       -0.0030669791
Si               0.2501212299        0.2506068782        0.2530669791


     kinetic energy (Ekin) =           0.00531768 Ry
     temperature           =         559.72974208 K 
     Ekin + Etot (const)   =         -21.58201640 Ry
     Ions kinetic stress =            1.93 (kbar)
                                      3.18           2.83          -0.55
                                      2.83           2.52          -0.49
                                     -0.55          -0.49           0.10



     Linear momentum :   -0.0000000000    0.0000000000   -0.0000000000

     Writing config-only to output data dir ./tmp/adit.save/ :
     XML data file
     NEW-OLD atomic charge density approx. for the potential

     Check: negative core charge=   -0.000003

     total cpu time spent up to now is        3.2 secs

     per-process dynamical memory:    18.8 Mb

     Self-consistent Calculation

     iteration #  1     ecut=    30.00 Ry     beta= 0.70
     Davidson diagonalization with overlap
     ethr =  1.00E-06,  avg # of iterations =  5.0

     total cpu time spent up to now is        3.2 secs

     total energy              =     -21.58667349 Ry
     estimated scf accuracy    <       0.00003650 Ry

     iteration #  2     ecut=    30.00 Ry     beta= 0.70
     Davidson diagonalization with overlap
     ethr =  4.56E-07,  avg # of iterations =  2.0

     total cpu time spent up to now is        3.3 secs

     total energy              =     -21.58668052 Ry
     estimated scf accuracy    <       0.00000297 Ry

     iteration #  3     ecut=    30.00 Ry     beta= 0.70
     Davidson diagonalization with overlap
     ethr =  3.71E-08,  avg # of iterations =  2.0

     total cpu time spent up to now is        3.3 secs

     End of self-consistent calculation

          k = 0.0000 0.0000 0.0000 (   749 PWs)   bands (ev):

    -4.9582   7.0685   7.1792   7.3515

     highest occupied level (ev):     7.3515

!    total energy              =     -21.58668108 Ry
     estimated scf accuracy    <       0.00000020 Ry

     convergence has been achieved in   3 iterations

     Forces acting on atoms (cartesian axes, Ry/au):

     atom    1 type  1   force =     0.02238219    0.01940008    0.00391975
     atom    2 type  1   force =    -0.02238219   -0.01940008   -0.00391975

     Total force =     0.042254     Total SCF correction =     0.000282


     Computing stress (Cartesian axis) and pressure

          total   stress  (Ry/bohr**3)                   (kbar)     P=      434.00
   0.00294887  -0.00000964  -0.00005137          433.79       -1.42       -7.56
  -0.00000964   0.00294975  -0.00005919           -1.42      433.92       -8.71
  -0.00005137  -0.00005919   0.00295226           -7.56       -8.71      434.29


     Entering Dynamics:    iteration =    12
                           time      =   0.0240 pico-seconds


     Soft (Berendsen) velocity rescaling

ATOMIC_POSITIONS (crystal)
Si               0.0002841533       -0.0004479452       -0.0055831343
Si               0.2497158467        0.2504479452        0.2555831343


     kinetic energy (Ekin) =           0.00455712 Ry
     temperature           =         479.67445945 K 
     Ekin + Etot (const)   =         -21.58212396 Ry
     Ions kinetic stress =            1.65 (kbar)
                                      2.69           2.40          -0.58
                                      2.40           2.15          -0.52
                                     -0.58          -0.52           0.12



     Linear momentum :   -0.0000000000    0.0000000000    0.0000000000

     Writing config-only to output data dir ./tmp/adit.save/ :
     XML data file
     NEW-OLD atomic charge density approx. for the potential

     Check: negative core charge=   -0.000003

     total cpu time spent up to now is        3.4 secs

     per-process dynamical memory:    18.8 Mb

     Self-consistent Calculation

     iteration #  1     ecut=    30.00 Ry     beta= 0.70
     Davidson diagonalization with overlap
     ethr =  1.00E-06,  avg # of iterations =  5.0

     total cpu time spent up to now is        3.5 secs

     total energy              =     -21.58541490 Ry
     estimated scf accuracy    <       0.00002851 Ry

     iteration #  2     ecut=    30.00 Ry     beta= 0.70
     Davidson diagonalization with overlap
     ethr =  3.56E-07,  avg # of iterations =  2.0

     total cpu time spent up to now is        3.5 secs

     total energy              =     -21.58542039 Ry
     estimated scf accuracy    <       0.00000239 Ry

     iteration #  3     ecut=    30.00 Ry     beta= 0.70
     Davidson diagonalization with overlap
     ethr =  2.98E-08,  avg # of iterations =  2.0

     total cpu time spent up to now is        3.5 secs

     End of self-consistent calculation

          k = 0.0000 0.0000 0.0000 (   749 PWs)   bands (ev):

    -4.9602   6.9710   7.1967   7.4341

     highest occupied level (ev):     7.4341

!    total energy              =     -21.58542074 Ry
     estimated scf accuracy    <       0.00000014 Ry

     convergence has been achieved in   3 iterations

     Forces acting on atoms (cartesian axes, Ry/au):

     atom    1 type  1   force =     0.03678858    0.03232289   -0.00042218
     atom    2 type  1   force =    -0.03678858   -0.03232289    0.00042218

     Total force =     0.069258     Total SCF correction =     0.000218


     Computing stress (Cartesian axis) and pressure

          total   stress  (Ry/bohr**3)                   (kbar)     P=      434.60
   0.00295034   0.00000202  -0.00008499          434.01        0.30      -12.50
   0.00000202   0.00295258  -0.00009667            0.30      434.34      -14.22
  -0.00008499  -0.00009667   0.00296009          -12.50      -14.22      435.44


     Entering Dynamics:    iteration =    13
                           time      =   0.0260 pico-seconds


     Soft (Berendsen) velocity rescaling

ATOMIC_POSITIONS (crystal)
Si               0.0006539185       -0.0002641977       -0.0076231810
Si               0.2493460815        0.2502641977        0.2576231810


     kinetic energy (Ekin) =           0.00324784 Ry
     temperature           =         341.86235646 K 
     Ekin + Etot (const)   =         -21.58217290 Ry
     Ions kinetic stress =            1.18 (kbar)
                                      1.89           1.69          -0.50
                                      1.69           1.52          -0.45
                                     -0.50          -0.45           0.13



     Linear momentum :    0.0000000000   -0.0000000000    0.0000000000

     Writing config-only to output data dir ./tmp/adit.save/ :
     XML data file
     NEW-OLD atomic charge density approx. for the potential

     Check: negative core charge=   -0.000003

     total cpu time spent up to now is        3.7 secs

     per-process dynamical memory:    18.8 Mb

     Self-consistent Calculation

     iteration #  1     ecut=    30.00 Ry     beta= 0.70
     Davidson diagonalization with overlap
     ethr =  1.00E-06,  avg # of iterations =  5.0

     total cpu time spent up to now is        3.7 secs

     total energy              =     -21.58395261 Ry
     estimated scf accuracy    <       0.00001843 Ry

     iteration #  2     ecut=    30.00 Ry     beta= 0.70
     Davidson diagonalization with overlap
     ethr =  2.30E-07,  avg # of iterations =  2.0

     total cpu time spent up to now is        3.7 secs

     total energy              =     -21.58395633 Ry
     estimated scf accuracy    <       0.00000150 Ry

     iteration #  3     ecut=    30.00 Ry     beta= 0.70
     Davidson diagonalization with overlap
     ethr =  1.88E-08,  avg # of iterations =  2.0

     total cpu time spent up to now is        3.8 secs

     End of self-consistent calculation

          k = 0.0000 0.0000 0.0000 (   749 PWs)   bands (ev):

    -4.9626   6.8927   7.2139   7.4985

     highest occupied level (ev):     7.4985

!    total energy              =     -21.58395659 Ry
     estimated scf accuracy    <       0.00000009 Ry

     convergence has been achieved in   3 iterations

     Forces acting on atoms (cartesian axes, Ry/au):

     atom    1 type  1   force =     0.04823991    0.04268135   -0.00485549
     atom    2 type  1   force =    -0.04823991   -0.04268135    0.00485549

     Total force =     0.091349     Total SCF correction =     0.000178


     Computing stress (Cartesian axis) and pressure

          total   stress  (Ry/bohr**3)                   (kbar)     P=      435.29
   0.00295215   0.00001405  -0.00011221          434.28        2.07      -16.51
   0.00001405   0.00295588  -0.00012677            2.07      434.82      -18.65
  -0.00011221  -0.00012677   0.00296906          -16.51      -18.65      436.76


     Entering Dynamics:    iteration =    14
                           time      =   0.0280 pico-seconds


     Soft (Berendsen) velocity rescaling

ATOMIC_POSITIONS (crystal)
Si               0.0009547889       -0.0000764389       -0.0090337821
Si               0.2490452111        0.2500764389        0.2590337821


     kinetic energy (Ekin) =           0.00179669 Ry
     temperature           =         189.11613436 K 
     Ekin + Etot (const)   =         -21.58215991 Ry
     Ions kinetic stress =            0.65 (kbar)
                                      1.01           0.92          -0.34
                                      0.92           0.83          -0.31
                                     -0.34          -0.31           0.12



     Linear momentum :    0.0000000000   -0.0000000000    0.0000000000

     Writing config-only to output data dir ./tmp/adit.save/ :
     XML data file
     NEW-OLD atomic charge density approx. for the potential

     Check: negative core charge=   -0.000003

     total cpu time spent up to now is        3.9 secs

     per-process dynamical memory:    18.8 Mb

     Self-consistent Calculation

     iteration #  1     ecut=    30.00 Ry     beta= 0.70
     Davidson diagonalization with overlap
     ethr =  1.00E-06,  avg # of iterations =  4.0

     total cpu time spent up to now is        4.0 secs

     total energy              =     -21.58274335 Ry
     estimated scf accuracy    <       0.00000846 Ry

     iteration #  2     ecut=    30.00 Ry     beta= 0.70
     Davidson diagonalization with overlap
     ethr =  1.06E-07,  avg # of iterations =  2.0

     total cpu time spent up to now is        4.0 secs

     End of self-consistent calculation

          k = 0.0000 0.0000 0.0000 (   749 PWs)   bands (ev):

    -4.9645   6.8389   7.2293   7.5398

     highest occupied level (ev):     7.5398

!    total energy              =     -21.58274511 Ry
     estimated scf accuracy    <       0.00000065 Ry

     convergence has been achieved in   2 iterations

     Forces acting on atoms (cartesian axes, Ry/au):

     atom    1 type  1   force =     0.05611114    0.04987550   -0.00875132
     atom    2 type  1   force =    -0.05611114   -0.04987550    0.00875132

     Total force =     0.106889     Total SCF correction =     0.000204


     Computing stress (Cartesian axis) and pressure

          total   stress  (Ry/bohr**3)                   (kbar)     P=      435.84
   0.00295372   0.00002456  -0.00013297          434.51        3.61      -19.56
   0.00002456   0.00295851  -0.00014940            3.61      435.21      -21.98
  -0.00013297  -0.00014940   0.00297613          -19.56      -21.98      437.80


     Entering Dynamics:    iteration =    15
                           time      =   0.0300 pico-seconds


     Soft (Berendsen) velocity rescaling

ATOMIC_POSITIONS (crystal)
Si               0.0011625220        0.0000976835       -0.0097183450
Si               0.2488374780        0.2499023165        0.2597183450


     kinetic energy (Ekin) =           0.00063131 Ry
     temperature           =          66.45106320 K 
     Ekin + Etot (const)   =         -21.58211379 Ry
     Ions kinetic stress =            0.23 (kbar)
                                      0.33           0.30          -0.16
                                      0.30           0.28          -0.15
                                     -0.16          -0.15           0.08



     Linear momentum :    0.0000000000   -0.0000000000    0.0000000000

     Writing config-only to output data dir ./tmp/adit.save/ :
     XML data file
     NEW-OLD atomic charge density approx. for the potential

     Check: negative core charge=   -0.000003

     total cpu time spent up to now is        4.2 secs

     per-process dynamical memory:    18.8 Mb

     Self-consistent Calculation

     iteration #  1     ecut=    30.00 Ry     beta= 0.70
     Davidson diagonalization with overlap
     ethr =  1.00E-06,  avg # of iterations =  3.0

     Threshold (ethr) on eigenvalues was too large:
     Diagonalizing with lowered threshold

     Davidson diagonalization with overlap
     ethr =  2.51E-08,  avg # of iterations =  4.0

     total cpu time spent up to now is        4.2 secs

     total energy              =     -21.58215436 Ry
     estimated scf accuracy    <       0.00000160 Ry

     iteration #  2     ecut=    30.00 Ry     beta= 0.70
     Davidson diagonalization with overlap
     ethr =  2.00E-08,  avg # of iterations =  2.0

     total cpu time spent up to now is        4.2 secs

     End of self-consistent calculation

          k = 0.0000 0.0000 0.0000 (   749 PWs)   bands (ev):

    -4.9655   6.8143   7.2405   7.5543

     highest occupied level (ev):     7.5543

!    total energy              =     -21.58215467 Ry
     estimated scf accuracy    <       0.00000016 Ry

     convergence has been achieved in   2 iterations

     Forces acting on atoms (cartesian axes, Ry/au):

     atom    1 type  1   force =     0.05924886    0.05284852   -0.01145215
     atom    2 type  1   force =    -0.05924886   -0.05284852    0.01145215

     Total force =     0.113442     Total SCF correction =     0.000119


     Computing stress (Cartesian axis) and pressure

          total   stress  (Ry/bohr**3)                   (kbar)     P=      436.12
   0.00295465   0.00003247  -0.00013881          434.64        4.78      -20.42
   0.00003247   0.00295989  -0.00015552            4.78      435.42      -22.88
  -0.00013881  -0.00015552   0.00297950          -20.42      -22.88      438.30


     Entering Dynamics:    iteration =    16
                           time      =   0.0320 pico-seconds


     Soft (Berendsen) velocity rescaling

ATOMIC_POSITIONS (crystal)
Si               0.0012716084        0.0002536156       -0.0096567238
Si               0.2487283916        0.2497463844        0.2596567238


     kinetic energy (Ekin) =           0.00006840 Ry
     temperature           =           7.19917786 K 
     Ekin + Etot (const)   =         -21.58208627 Ry
     Ions kinetic stress =            0.02 (kbar)
                                      0.01           0.01          -0.02
                                      0.01           0.01          -0.03
                                     -0.02          -0.03           0.05



     Linear momentum :   -0.0000000000   -0.0000000000    0.0000000000

     Writing config-only to output data dir ./tmp/adit.save/ :
     XML data file
     NEW-OLD atomic charge density approx. for the potential

     Check: negative core charge=   -0.000003

     total cpu time spent up to now is        4.4 secs

     per-process dynamical memory:    18.8 Mb

     Self-consistent Calculation

     iteration #  1     ecut=    30.00 Ry     beta= 0.70
     Davidson diagonalization with overlap
     ethr =  1.00E-06,  avg # of iterations =  2.0

     Threshold (ethr) on eigenvalues was too large:
     Diagonalizing with lowered threshold

     Davidson diagonalization with overlap
     ethr =  7.28E-09,  avg # of iterations =  4.0

     total cpu time spent up to now is        4.4 secs

     End of self-consistent calculation

          k = 0.0000 0.0000 0.0000 (   749 PWs)   bands (ev):

    -4.9652   6.8180   7.2471   7.5435

     highest occupied level (ev):     7.5435

!    total energy              =     -21.58234380 Ry
     estimated scf accuracy    <       0.00000045 Ry

     convergence has been achieved in   1 iterations

     Forces acting on atoms (cartesian axes, Ry/au):

     atom    1 type  1   force =     0.05782929    0.05173951   -0.01292816
     atom    2 type  1   force =    -0.05782929   -0.05173951    0.01292816

     Total force =     0.111251     Total SCF correction =     0.000215


     Computing stress (Cartesian axis) and pressure

          total   stress  (Ry/bohr**3)                   (kbar)     P=      436.05
   0.00295468   0.00003820  -0.00013352          434.65        5.62      -19.64
   0.00003820   0.00295976  -0.00014898            5.62      435.40      -21.92
  -0.00013352  -0.00014898   0.00297828          -19.64      -21.92      438.12


     Entering Dynamics:    iteration =    17
                           time      =   0.0340 pico-seconds


     Soft (Berendsen) velocity rescaling

ATOMIC_POSITIONS (crystal)
Si               0.0013378617        0.0004807097       -0.0087523462
Si               0.2486621383        0.2495192903        0.2587523462


     kinetic energy (Ekin) =           0.00043949 Ry
     temperature           =          46.25967248 K 
     Ekin + Etot (const)   =         -21.58190431 Ry
     Ions kinetic stress =            0.16 (kbar)
                                      0.24           0.21           0.12
                                      0.21           0.17           0.10
                                      0.12           0.10           0.06



     Linear momentum :    0.0000000000    0.0000000000    0.0000000000

     Writing config-only to output data dir ./tmp/adit.save/ :
     XML data file
     NEW-OLD atomic charge density approx. for the potential

     Check: negative core charge=   -0.000003

     total cpu time spent up to now is        4.6 secs

     per-process dynamical memory:    18.8 Mb

     Self-consistent Calculation

     iteration #  1     ecut=    30.00 Ry     beta= 0.70
     Davidson diagonalization with overlap
     ethr =  1.00E-06,  avg # of iterations =  3.0

     Threshold (ethr) on eigenvalues was too large:
     Diagonalizing with lowered threshold

     Davidson diagonalization with overlap
     ethr =  9.08E-08,  avg # of iterations =  2.0

     total cpu time spent up to now is        4.6 secs

     total energy              =     -21.58342055 Ry
     estimated scf accuracy    <       0.00000625 Ry

     iteration #  2     ecut=    30.00 Ry     beta= 0.70
     Davidson diagonalization with overlap
     ethr =  7.81E-08,  avg # of iterations =  2.0

     total cpu time spent up to now is        4.7 secs

     End of self-consistent calculation

          k = 0.0000 0.0000 0.0000 (   749 PWs)   bands (ev):

    -4.9634   6.8571   7.2551   7.4939

     highest occupied level (ev):     7.4939

!    total energy              =     -21.58342210 Ry
     estimated scf accuracy    <       0.00000055 Ry

     convergence has been achieved in   2 iterations

     Forces acting on atoms (cartesian axes, Ry/au):

     atom    1 type  1   force =     0.05085682    0.04574872   -0.01388013
     atom    2 type  1   force =    -0.05085682   -0.04574872    0.01388013

     Total force =     0.098712     Total SCF correction =     0.000263


     Computing stress (Cartesian axis) and pressure

          total   stress  (Ry/bohr**3)                   (kbar)     P=      435.58
   0.00295375   0.00003859  -0.00011796          434.51        5.68      -17.35
   0.00003859   0.00295749  -0.00013095            5.68      435.06      -19.26
  -0.00011796  -0.00013095   0.00297183          -17.35      -19.26      437.17


     Entering Dynamics:    iteration =    18
                           time      =   0.0360 pico-seconds


     Soft (Berendsen) velocity rescaling

ATOMIC_POSITIONS (crystal)
Si               0.0012890997        0.0006799832       -0.0070125605
Si               0.2487109003        0.2493200168        0.2570125605


     kinetic energy (Ekin) =           0.00180788 Ry
     temperature           =         190.29492075 K 
     Ekin + Etot (const)   =         -21.58161422 Ry
     Ions kinetic stress =            0.66 (kbar)
                                      1.11           0.96           0.17
                                      0.96           0.83           0.14
                                      0.17           0.14           0.02



     Linear momentum :   -0.0000000000   -0.0000000000   -0.0000000000

     Writing config-only to output data dir ./tmp/adit.save/ :
     XML data file
     NEW-OLD atomic charge density approx. for the potential

     Check: negative core charge=   -0.000003

     total cpu time spent up to now is        4.8 secs

     per-process dynamical memory:    18.8 Mb

     Self-consistent Calculation

     iteration #  1     ecut=    30.00 Ry     beta= 0.70
     Davidson diagonalization with overlap
     ethr =  1.00E-06,  avg # of iterations =  4.0

     total cpu time spent up to now is        4.9 secs

     total energy              =     -21.58499855 Ry
     estimated scf accuracy    <       0.00001841 Ry

     iteration #  2     ecut=    30.00 Ry     beta= 0.70
     Davidson diagonalization with overlap
     ethr =  2.30E-07,  avg # of iterations =  2.0

     total cpu time spent up to now is        4.9 secs

     total energy              =     -21.58500236 Ry
     estimated scf accuracy    <       0.00000154 Ry

     iteration #  3     ecut=    30.00 Ry     beta= 0.70
     Davidson diagonalization with overlap
     ethr =  1.92E-08,  avg # of iterations =  2.0

     total cpu time spent up to now is        4.9 secs

     End of self-consistent calculation

          k = 0.0000 0.0000 0.0000 (   749 PWs)   bands (ev):

    -4.9609   6.9268   7.2576   7.4180

     highest occupied level (ev):     7.4180

!    total energy              =     -21.58500258 Ry
     estimated scf accuracy    <       0.00000007 Ry

     convergence has been achieved in   3 iterations

     Forces acting on atoms (cartesian axes, Ry/au):

     atom    1 type  1   force =     0.03900086    0.03536641   -0.01362795
     atom    2 type  1   force =    -0.03900086   -0.03536641    0.01362795

     Total force =     0.076910     Total SCF correction =     0.000144


     Computing stress (Cartesian axis) and pressure

          total   stress  (Ry/bohr**3)                   (kbar)     P=      434.83
   0.00295191   0.00003682  -0.00009049          434.24        5.42      -13.31
   0.00003682   0.00295386  -0.00010006            5.42      434.53      -14.72
  -0.00009049  -0.00010006   0.00296191          -13.31      -14.72      435.71


     Entering Dynamics:    iteration =    19
                           time      =   0.0380 pico-seconds


     Soft (Berendsen) velocity rescaling

ATOMIC_POSITIONS (crystal)
Si               0.0011273187        0.0008170836       -0.0046753196
Si               0.2488726813        0.2491829164        0.2546753196


     kinetic energy (Ekin) =           0.00343767 Ry
     temperature           =         361.84349477 K 
     Ekin + Etot (const)   =         -21.58156491 Ry
     Ions kinetic stress =            1.25 (kbar)
                                      2.12           1.86           0.06
                                      1.86           1.63           0.05
                                      0.06           0.05           0.00



     Linear momentum :   -0.0000000000    0.0000000000   -0.0000000000

     Writing config-only to output data dir ./tmp/adit.save/ :
     XML data file
     NEW-OLD atomic charge density approx. for the potential

     Check: negative core charge=   -0.000003

     total cpu time spent up to now is        5.1 secs

     per-process dynamical memory:    18.8 Mb

     Self-consistent Calculation

     iteration #  1     ecut=    30.00 Ry     beta= 0.70
     Davidson diagonalization with overlap
     ethr =  1.00E-06,  avg # of iterations =  5.0

     total cpu time spent up to now is        5.1 secs

     total energy              =     -21.58643815 Ry
     estimated scf accuracy    <       0.00002991 Ry

     iteration #  2     ecut=    30.00 Ry     beta= 0.70
     Davidson diagonalization with overlap
     ethr =  3.74E-07,  avg # of iterations =  2.0

     total cpu time spent up to now is        5.2 secs

     total energy              =     -21.58644400 Ry
     estimated scf accuracy    <       0.00000251 Ry

     iteration #  3     ecut=    30.00 Ry     beta= 0.70
     Davidson diagonalization with overlap
     ethr =  3.14E-08,  avg # of iterations =  2.0

     total cpu time spent up to now is        5.2 secs

     End of self-consistent calculation

          k = 0.0000 0.0000 0.0000 (   749 PWs)   bands (ev):

    -4.9586   7.0199   7.2555   7.3237

     highest occupied level (ev):     7.3237

!    total energy              =     -21.58644441 Ry
     estimated scf accuracy    <       0.00000016 Ry

     convergence has been achieved in   3 iterations

     Forces acting on atoms (cartesian axes, Ry/au):

     atom    1 type  1   force =     0.02370853    0.02186187   -0.01246676
     atom    2 type  1   force =    -0.02370853   -0.02186187    0.01246676

     Total force =     0.048897     Total SCF correction =     0.000248


     Computing stress (Cartesian axis) and pressure

          total   stress  (Ry/bohr**3)                   (kbar)     P=      434.16
   0.00295011   0.00003280  -0.00005610          433.98        4.83       -8.25
   0.00003280   0.00295076  -0.00006080            4.83      434.07       -8.94
  -0.00005610  -0.00006080   0.00295325           -8.25       -8.94      434.44


     Entering Dynamics:    iteration =    20
                           time      =   0.0400 pico-seconds


     Soft (Berendsen) velocity rescaling

ATOMIC_POSITIONS (crystal)
Si               0.0008730973        0.0008844950       -0.0019704562
Si               0.2491269027        0.2491155050        0.2519704562


     kinetic energy (Ekin) =           0.00480748 Ry
     temperature           =         506.02785191 K 
     Ekin + Etot (const)   =         -21.58163693 Ry
     Ions kinetic stress =            1.75 (kbar)
                                      2.94           2.60          -0.12
                                      2.60           2.29          -0.10
                                     -0.12          -0.10           0.00



     Linear momentum :    0.0000000000    0.0000000000    0.0000000000

     The maximum number of steps has been reached.

     End of molecular dynamics calculation

     diffusion coefficients :
     atom     1   D =       0.00000002 cm^2/s
     atom     2   D =       0.00000002 cm^2/s

     < D > =       0.00000002 cm^2/s

     Writing all to output data dir ./tmp/adit.save/ :
     XML data file, charge density, pseudopotentials, collected wavefunctions

     init_run     :      0.24s CPU      0.25s WALL (       1 calls)
     electrons    :      1.69s CPU      1.74s WALL (      20 calls)
     update_pot   :      0.08s CPU      0.09s WALL (      19 calls)
     forces       :      0.36s CPU      0.37s WALL (      20 calls)
     stress       :      2.42s CPU      2.42s WALL (      20 calls)

     Called by init_run:
     wfcinit      :      0.01s CPU      0.01s WALL (       1 calls)
     potinit      :      0.01s CPU      0.01s WALL (       1 calls)
     hinit0       :      0.20s CPU      0.20s WALL (       1 calls)

     Called by electrons:
     c_bands      :      0.24s CPU      0.26s WALL (      58 calls)
     sum_band     :      0.71s CPU      0.72s WALL (      58 calls)
     v_of_rho     :      0.26s CPU      0.28s WALL (      71 calls)
     newd         :      0.69s CPU      0.70s WALL (      71 calls)
     mix_rho      :      0.01s CPU      0.01s WALL (      58 calls)

     Called by c_bands:
     init_us_2    :      0.02s CPU      0.02s WALL (     137 calls)
     cegterg      :      0.19s CPU      0.21s WALL (      58 calls)

     Called by *egterg:
     cdiaghg      :      0.01s CPU      0.02s WALL (     201 calls)
     h_psi        :      0.16s CPU      0.17s WALL (     228 calls)
     s_psi        :      0.01s CPU      0.01s WALL (     228 calls)
     g_psi        :      0.00s CPU      0.00s WALL (     169 calls)

     Called by h_psi:
     h_psi:calbec :      0.01s CPU      0.01s WALL (     228 calls)
     vloc_psi     :      0.14s CPU      0.15s WALL (     228 calls)
                                        0.00s GPU  (     228 calls)
     add_vuspsi   :      0.01s CPU      0.01s WALL (     228 calls)

     General routines
     calbec       :      0.03s CPU      0.04s WALL (     626 calls)
     fft          :      0.25s CPU      0.26s WALL (    1307 calls)
     ffts         :      0.01s CPU      0.01s WALL (      58 calls)
     fftw         :      0.15s CPU      0.16s WALL (    1660 calls)

     Parallel routines

     PWSCF        :      5.21s CPU      5.34s WALL


   This run was terminated on:  14:33:16  19Sep2026            

=------------------------------------------------------------------------------=
   JOB DONE.
=------------------------------------------------------------------------------=
