    3
MD iter: 0
    O     -0.00000000     -0.71603315     -0.00000000      6.59260702     -2.01981986     -1.00168260      0.85120282
    H      0.00000000     -0.14200298      0.77844804      0.70369649     26.82344326     14.90355442    -19.62122307
    H     -0.00000000     -0.14200298     -0.77844804      0.70369649      5.25722738      1.00610666      6.10162273
    3
MD iter: 1
    O     -0.00100991     -0.71653403      0.00042560      6.59163304     -2.02003764     -1.01019756      0.83910072
    H      0.01341172     -0.13455095      0.76863866      0.70401050     26.82876843     15.04511665    -19.17139138
    H      0.00262861     -0.14149967     -0.77539846      0.70435646      5.25536116      0.99978707      5.84400791
    3
MD iter: 2
    O     -0.00202004     -0.71704335      0.00083910      6.59064512     -2.02148574     -1.03198556      0.80703629
    H      0.02682876     -0.12695787      0.75927666      0.70438749     26.85980461     15.42303027    -17.91570928
    H      0.00525536     -0.14100320     -0.77260403      0.70496738      5.24732512      0.96793087      5.09760320
    3
MD iter: 3
    O     -0.00303112     -0.71756587      0.00123253      6.58962030     -2.02467222     -1.05723605      0.76448212
    H      0.04026790     -0.11912997      0.75072548      0.70485937     26.93144530     15.91254728    -16.05525734
    H      0.00787523     -0.14053187     -0.77030161      0.70552032      5.22629501      0.87946575      3.91303644
    3
MD iter: 4
    O     -0.00404396     -0.71810020      0.00160329      6.58854537     -2.02900882     -1.07193868      0.72244374
    H      0.05375026     -0.11105112      0.74322773      0.70543762     27.04197646     16.33840633    -13.85106610
    H      0.01047971     -0.14012408     -0.76869270      0.70601701      5.18464186      0.68712765      2.37653809
    3
MD iter: 5
    O     -0.00505880     -0.71863711      0.00195448      6.58741942     -2.03276349     -1.06003864      0.69143874
    H      0.06729213     -0.10280220      0.73688428      0.70611600     27.17208510     16.50352311    -11.58391919
    H      0.01305644     -0.13984528     -0.76792719      0.70646458      5.11416837      0.33300332      0.60184166
    3
MD iter: 6
    O     -0.00607478     -0.71915921      0.00229406      6.58625865     -2.03337716     -1.00620082      0.67953745
    H      0.08089643     -0.09456338      0.73165595      0.70687191     27.28925116     16.22482503     -9.51144463
    H      0.01558895     -0.13979161     -0.76809232      0.70686945      5.00674923     -0.24340125     -1.28160561
    3
MD iter: 7
    O     -0.00708964     -0.71964201      0.00263317      6.58509816     -2.02803840     -0.89850109      0.69102640
    H      0.09454740     -0.08659795      0.72738590      0.70766217     27.35598852     15.36658145     -7.83251979
    H      0.01805687     -0.14008882     -0.76920838      0.70723967      4.85521669     -1.09574573     -3.14300861
    3
MD iter: 8
    O     -0.00809968     -0.72005621      0.00298403      6.58399119     -2.01428711     -0.73034634      0.72601627
    H      0.10821011     -0.07922149      0.72383666      0.70842946     27.33863031     13.86204927     -6.66636574
    H      0.02043652     -0.14088643     -0.77123187      0.70757935      4.65416399     -2.26200470     -4.86490457
    3
MD iter: 9
    O     -0.00910011     -0.72037079      0.00335786      6.58300491     -1.99045651     -0.50134629      0.78086289
    H      0.12183444     -0.07276375      0.72073293      0.70910843     27.21385773     11.72063077     -6.04719288
    H      0.02270205     -0.14234781     -0.77406565      0.70788665      4.40043661     -3.75777951     -6.35520279
    3
MD iter: 10
    O     -0.01008558     -0.72055613      0.00376319      6.58221300     -1.95586309     -0.21722804      0.84910479
    H      0.13536196     -0.06753024      0.71780359      0.70963412     26.97155089      9.02240616     -5.93169797
    H      0.02482665     -0.14463756     -0.77757418      0.70815288      4.09329842     -5.57218698     -7.55457949
    3
MD iter: 11
    O     -0.01105069     -0.72058702      0.00420480      6.58168619     -1.91077696      0.11090139      0.92259071
    H      0.14873352     -0.06376939      0.71481693      0.70995127     26.61429231      5.90468670     -6.21498690
    H      0.02678396     -0.14790773     -0.78160143      0.70836254      3.73445676     -7.66612650     -8.43846278
    3
MD iter: 12
    O     -0.01199056     -0.72044504      0.00468313      6.58148211     -1.85635817      0.46751552      0.99251630
    H      0.16189598     -0.06164813      0.71160653      0.71001865     26.15610225      2.54699222     -6.74909686
    H      0.02854935     -0.15228406     -0.78598847      0.70849924      3.32831676     -9.97251160     -9.01497643
    3
MD iter: 13
    O     -0.01290120     -0.72012039      0.00519434      6.58163701     -1.79477796      0.83374177      1.05034086
    H      0.17480771     -0.06123559      0.70808781      0.70982330     25.62363299     -0.84285541     -7.36125766
    H      0.03010129     -0.15785301     -0.79058911      0.70853968      2.88271138    -12.39941220     -9.32123952
    3
MD iter: 14
    O     -0.01378003     -0.71961319      0.00573049      6.58216003     -1.72948048      1.18883364      1.08870975
    H      0.18744430     -0.06249340      0.70426580      0.70937226     25.05952071     -4.04448278     -7.87247145
    H      0.03142301     -0.16465099     -0.79528287      0.70846772      2.40970799    -14.83768649     -9.41943634
    3
MD iter: 15
    O     -0.01462640     -0.71893403      0.00628043      6.58303021     -1.66520876      1.51221258      1.10234102
    H      0.19980557     -0.06527394      0.70023399      0.70870020     24.52280927     -6.84583587     -8.11720106
    H      0.03250455     -0.17265752     -0.79998564      0.70826960      1.92559566    -17.17254048     -9.39121134
    3
MD iter: 16
    O     -0.01544217     -0.71810344      0.00683084      6.58419949     -1.60751804      1.78574911      1.08870643
    H      0.21192235     -0.06932916      0.69616320      0.70786187     24.08236192     -9.06733753     -7.96335638
    H      0.03334469     -0.18179453     -0.80465705      0.70793864      1.44974497    -19.29560223     -9.32849867
    3
MD iter: 17
    O     -0.01623199     -0.71715024      0.00736784      6.58559937     -1.56189272      1.99581078      1.04848713
    H      0.22385934     -0.07433171      0.69228024      0.70692490     23.80452203    -10.58486514     -7.33142111
    H      0.03395231     -0.19193157     -0.80930311      0.70747572      1.00292094    -21.11447074     -9.32163342
    3
MD iter: 18
    O     -0.01700304     -0.71610887      0.00787863      6.58715061     -1.53275530      2.13481471      0.98580385
    H      0.23571137     -0.07990753      0.68883682      0.70596005     23.73900245    -11.34766731     -6.21074648
    H      0.03434682     -0.20289584     -0.81397265      0.70688934      0.60565268    -22.55945911     -9.44671346
    3
MD iter: 19
    O     -0.01776435     -0.71501597      0.00835338      6.58877333     -1.52260149      2.20210203      0.90809299
    H      0.24759220     -0.08567649      0.68607127      0.70503162     23.90651883    -11.38770233     -4.66929356
    H      0.03455776     -0.21448535     -0.81874741      0.70619506      0.27686402    -23.58814443     -9.75388977
    3
MD iter: 20
    O     -0.01852564     -0.71390677      0.00878672      6.59039553     -1.53141700      2.20397555      0.82547516
    H      0.25961781     -0.09129520      0.68416755      0.70418963     24.29065183    -10.81772493     -2.85306727
    H      0.03462369     -0.22648391     -0.82372651      0.70541484      0.03274714    -24.18787876    -10.25790222
    3
MD iter: 21
    O     -0.01929599     -0.71281166      0.00917898      6.59195866     -1.55651135      2.15279414      0.74954133
    H      0.27188646     -0.09649590      0.68321764      0.70346669     24.83611196     -9.81672017     -0.97256790
    H      0.03459053     -0.23867682     -0.82900680      0.70457465     -0.11414095    -24.37597246    -10.93234947
    3
MD iter: 22
    O     -0.02008252     -0.71175346      0.00953645      6.59341989     -1.59290804      2.06508573      0.69157281
    H      0.28445979     -0.10111440      0.68319452      0.70287272     25.45556787     -8.60244782      0.72527062
    H      0.03450953     -0.25086571     -0.83466138      0.70370739     -0.15551066    -24.19717769    -11.70947763
    3
MD iter: 23
    O     -0.02088936     -0.71074595      0.00987076      6.59475302     -1.63427685      1.95896805      0.66050621
    H      0.29734946     -0.10510108      0.68394289      0.70239802     26.04476497     -7.39570512      1.99572982
    H      0.03443497     -0.26288121     -0.84071962      0.70284896     -0.08764949    -23.71846003    -12.48650796
    3
MD iter: 24
    O     -0.02171733     -0.70979382      0.01019718      6.59594521     -1.67418270      1.85142223      0.66122855
    H      0.31051308     -0.10851275      0.68519075      0.70202433     26.50225347     -6.38497030      2.63624436
    H      0.03442183     -0.27459212     -0.84715190      0.70203046      0.08868407    -23.02105142    -13.13849550
    3
MD iter: 25
    O     -0.02256410     -0.70889389      0.01053221      6.59699641     -1.70731024      1.75598447      0.69377376
    H      0.32386045     -0.11148831      0.68657997      0.70171952     26.74822999     -5.70005423      2.51736613
    H      0.03452364     -0.28591003     -0.85386239      0.70128407      0.36887014    -22.19013566    -13.53653066
    3
MD iter: 26
    O     -0.02342510     -0.70803735      0.01089114      6.59791578     -1.73033860      1.68133265      0.75365690
    H      0.33726859     -0.11421442      0.68770887      0.70144922     26.73744590     -5.40040406      1.59743417
    H      0.03479076     -0.29678843     -0.86069209      0.70063500      0.74541219    -21.30409572    -13.56771879
    3
MD iter: 27
    O     -0.02429466     -0.70721234      0.01128596      6.59871846     -1.74234764      1.63085448      0.83305127
    H      0.35060136     -0.11688942      0.68817769      0.70118136     26.46454359     -5.47703294     -0.07888978
    H      0.03526913     -0.30721693     -0.86743187      0.70010018      1.20905330    -20.42572528    -13.15241067
    3
MD iter: 28
    O     -0.02516726     -0.70640667      0.01172410      6.59942146     -1.74478618      1.60300386      0.92234122
    H      0.36373023     -0.11969087      0.68762988      0.70089207     25.96256800     -5.86368212     -2.39358535
    H      0.03599971     -0.31721189     -0.87384304      0.69968647      1.74976015    -19.59672640    -12.25590163
    3
MD iter: 29
    O     -0.02603870     -0.70561002      0.01220793      6.60003947     -1.74108496      1.59219273      1.01168720
    H      0.37655275     -0.12275071      0.68578457      0.70056575     25.29616647     -6.45302482     -5.17476970
    H      0.03701826     -0.32680515     -0.87968231      0.69939478      2.35737548    -18.83567115    -10.89379387
    3
MD iter: 30
    O     -0.02690699     -0.70481571      0.01273504      6.60057907     -1.73608677      1.58993735      1.09227390
    H      0.38900653     -0.12613916      0.68245797      0.70020540     24.55232561     -7.11354989     -8.21727233
    H      0.03835550     -0.33603269     -0.88472778      0.69921553      3.02183027    -18.13932407     -9.13124466
    3
MD iter: 31
    O     -0.02777291     -0.70402180      0.01329906      6.60103732     -1.73546196      1.58611527      1.15717779
    H      0.40107818     -0.12985695      0.67757449      0.69982875     23.83127891     -7.70511333    -11.30131027
    H      0.04003721     -0.34492454     -0.88880266      0.69913394      3.73295316    -17.48705479     -7.07807111
    3
MD iter: 32
    O     -0.02864027     -0.70323160      0.01389080      6.60139751     -1.74517007      1.57033389      1.20203287
    H      0.41280740     -0.13383491      0.67116896      0.69946379     23.23805046     -8.09400541    -14.21112085
    H      0.04208422     -0.35349735     -0.89179559      0.69913870      4.48037495    -16.84750805     -4.88069088
    3
MD iter: 33
    O     -0.02951588     -0.70245347      0.01449960      6.60163241     -1.77088754      1.53338584      1.22556374
    H      0.42428648     -0.13794086      0.66337961      0.69915222     22.87312210     -8.16839467    -16.75534438
    H      0.04451239     -0.36175031     -0.89367576      0.69921537      5.25377227    -16.18627521     -2.71020670
    3
MD iter: 34
    O     -0.03040919     -0.70169996      0.01511499      6.60170573     -1.81724509      1.46865207      1.22990818
    H      0.43565471     -0.14199407      0.65443114      0.69894048     22.81999042     -7.85372120    -18.78827300
    H      0.04733253     -0.36966506     -0.89450157      0.69935379      6.04319804    -15.47278643     -0.74628048
    3
MD iter: 35
    O     -0.03133153     -0.70098617      0.01572840      6.60158370     -1.88684614      1.37327085      1.22056353
    H      0.44708616     -0.14578734      0.64460733      0.69887180     23.12964022     -7.12611076    -20.22834971
    H      0.05055055     -0.37720895     -0.89442056      0.69954450      6.83901727    -14.68546301      0.84221662
    3
MD iter: 36
    O     -0.03229485     -0.70032761      0.01633476      6.60122565     -1.97926388      1.24891106      1.20576823
    H      0.45876959     -0.14911528      0.63421546      0.69898732     23.80552139     -6.02075936    -21.06866164
    H      0.05416740     -0.38434079     -0.89365945      0.69978703      7.63100115    -13.81561571      1.91752135
    3
MD iter: 37
    O     -0.03330998     -0.69973781      0.01693366      6.60060899     -2.09030732      1.10202209      1.19527329
    H      0.47088175     -0.15180527      0.62354749      0.69931009     24.79352761     -4.63282145    -21.37653400
    H      0.05817848     -0.39101851     -0.89250369      0.70008092      8.40669076    -12.87052537      2.39208417
    3
MD iter: 38
    O     -0.03438466     -0.69922587      0.01752975      6.59971900     -2.21182260      0.94344950      1.19862577
    H      0.48355726     -0.15374680      0.61284409      0.69984766     25.98081885     -3.10926545    -21.28136815
    H      0.06257215     -0.39720808     -0.89126793      0.70043334      9.14941903    -11.87548312      2.24367109
    3
MD iter: 39
    O     -0.03552162     -0.69879445      0.01813218      6.59855501     -2.33227266      0.78731140      1.22312345
    H      0.49686046     -0.15491421      0.60226791      0.70058857     27.20687357     -1.63046221    -20.95083887
    H      0.06732716     -0.40289296     -0.89026022      0.70085642      9.83646501    -10.87435475      1.52404685
    3
MD iter: 40
    O     -0.03671709     -0.69843850      0.01875295      6.59713338     -2.43814260      0.64918873      1.27187833
    H      0.51076600     -0.15537743      0.59189177      0.70150741     28.28679510     -0.38332598    -20.55936317
    H      0.07240928     -0.40808324     -0.88974374      0.70135921     10.43806904     -9.92769738      0.35820046
