    3
MD iter: 0
    O      0.00000000     -1.00000000      0.00000000      6.46354747     -2.01981986     -1.00168260      0.85120282
    H      0.00000000      0.00000000      0.78306400      0.76822626     26.82344326     14.90355442    -19.62122307
    H      0.00000000      0.00000000     -0.78306400      0.76822626      5.25722738      1.00610666      6.10162273
    3
MD iter: 10
    O     -0.00875102     -0.94681253      0.00404744      6.60411033     -2.23251571     10.23310587      1.16346993
    H      0.12403846     -0.39033540      0.58582116      0.69773523     34.48253134    -72.46810257     30.40327064
    H      0.01495341     -0.45443776     -0.65010633      0.69815444      0.97637387    -90.06366826    -48.88258964
    3
MD iter: 20
    O     -0.02681328     -0.93574414      0.00872172      6.59252652     -2.77693220      3.31848888      0.38107431
    H      0.37919850     -0.39937320      1.04590138      0.70375063     32.01687770    -17.65881163      9.19106279
    H      0.04667508     -0.62119862     -1.18442795      0.70372284     12.08896013    -35.04853651    -15.24364191
    3
MD iter: 30
    O     -0.03740776     -0.91266320      0.01069156      6.62263601     -7.05147838      1.14424149      2.57814771
    H      0.43157142     -0.59546218      0.59170205      0.68891550     54.61293653     -8.03364839    -75.15944169
    H      0.16257371     -0.79170260     -0.76151549      0.68844849     57.38524686    -10.14026651     34.21088527
    3
MD iter: 40
    O     -0.09341341     -0.92193740      0.02947238      6.46610632     -3.49707286      0.99061450      1.31138769
    H      0.95145272     -0.45709236      0.58257099      0.76904828     32.58571477     -2.87548994    -21.98317036
    H      0.53222655     -0.78277092     -1.05067888      0.76484540     22.95807139    -12.85837722      1.15448301
    3
MD iter: 50
    O     -0.05867290     -0.89963649      0.02080834      6.60461244      8.28894313      5.33118386     -1.30718369
    H      0.63324722     -0.65541815      0.38819037      0.69758181    -66.35394728    -36.49019245      3.96622507
    H      0.29865075     -0.93864915     -0.71868785      0.69780575    -65.29881023    -48.18466225     16.79569055
    3
MD iter: 60
    O     -0.06591946     -0.88360833      0.02212812      6.54130071      0.93286121      2.67897747     -1.17570775
    H      0.88492629     -0.62667563      0.78930701      0.73120643     13.50278998     -7.48240742     33.49177971
    H      0.16206837     -1.22196581     -1.14076653      0.72749286    -28.31936533    -35.06762165    -14.81808820
    3
MD iter: 70
    O     -0.04057269     -0.87166069      0.01209792      6.62548564      2.77664889      4.03292415     -0.18393348
    H      0.59465408     -0.79928553      0.52305103      0.68718231    -43.36026732    -45.27276549    -66.80796185
    H      0.04975942     -1.23911955     -0.71520150      0.68733205     -0.74107072    -18.78191277     69.72936565
    3
MD iter: 80
    O     -0.07252746     -0.83582243      0.01556551      6.48723743     -2.80888624      4.10702468     -0.43631073
    H      1.01109432     -0.98715254      0.65450628      0.76193004     36.37977228    -28.75274997      0.01497161
    H      0.14085468     -1.62046945     -0.90173230      0.75083253      8.23358946    -36.47886224      6.91492407
    3
MD iter: 90
    O     -0.04621673     -0.84377801      0.00836727      6.60227040      8.22362964     -2.23036704     -0.33480335
    H      0.68125689     -1.01229812      0.40210498      0.69959502    -93.19272850     14.56756591    -49.01403888
    H      0.05280045     -1.46896579     -0.53500179      0.69813458    -37.42265898     20.85721222     54.33169924
    3
MD iter: 100
    O     -0.05143358     -0.82274117      0.00230545      6.50699082      0.53775336      0.72335260     -2.06415714
    H      0.99313049     -1.02643134      0.66986829      0.75312059     35.05947701      6.57873559     38.30006661
    H     -0.17621424     -1.78895940     -0.70648564      0.73988860    -43.60057956    -18.06769897     -5.51518975
    3
MD iter: 110
    O     -0.02364490     -0.84513643     -0.00400101      6.62057757      8.02711661     -3.24435218      0.75210242
    H      0.66016822     -0.94399706      0.50102466      0.69065989   -106.43327223     13.49420857    -64.65026894
    H     -0.28461775     -1.51569114     -0.43747680      0.68876254    -21.06091124     38.03563104     52.70467401
    3
MD iter: 120
    O     -0.02529673     -0.82044246     -0.02202049      6.53095832     -1.20975651      3.22108182     -3.91063124
    H      0.92657741     -1.05911427      0.77263750      0.74646054     35.28633439    -29.71981653     36.14553154
    H     -0.52479113     -1.79278669     -0.42288751      0.72258113    -16.07184857    -21.44042158     25.96677621
    3
MD iter: 130
    O     -0.01300049     -0.83105985     -0.02467095      6.59833525      6.56258255     -1.85992306      2.46212082
    H      0.61150206     -1.10046773      0.53691796      0.70286961   -112.44442492     11.22665772    -90.75325319
    H     -0.40501608     -1.58279799     -0.14507087      0.69879515      8.21134294     18.31438212     51.64754458
    3
MD iter: 140
    O     -0.01386681     -0.80957706     -0.04612963      6.49963680     -1.45926252     -0.28334135     -3.12796750
    H      0.84886601     -1.26393989      0.76238604      0.76886619     55.41566310    -10.49199751     42.17723162
    H     -0.62862037     -1.76053555     -0.02971209      0.73149702    -32.23828915     14.99229017      7.50407755
    3
MD iter: 150
    O     -0.00156275     -0.84215782     -0.03320637      6.60807200      8.59453239     -6.74744807      6.36192876
    H      0.67558678     -1.07175252      0.54599784      0.69905256   -100.61673354     68.38254934   -103.02489944
    H     -0.65076579     -1.43524476     -0.01858313      0.69287544    -35.88967868     38.78673989      1.97878884
    3
MD iter: 160
    O     -0.00359154     -0.84941568     -0.04926320      6.58355753     -3.24748917     -0.98492967     -5.00315476
    H      0.96174089     -1.00993197      0.74290566      0.73004090     54.05450628     -8.57256737     54.77670290
    H     -0.90469669     -1.38178916      0.03953857      0.68640157     -2.47484192     24.21614276     24.68808642
    3
MD iter: 170
    O      0.00890880     -0.85711596     -0.05338857      6.59710814      8.69680031     -0.98472724      1.88939603
    H      0.64602404     -1.01364535      0.60187043      0.70035836   -143.51989115      7.31468669    -89.33177282
    H     -0.78752195     -1.25577284      0.24609689      0.70253350      5.38916392      8.32567354     59.32261569
    3
MD iter: 180
    O      0.00455956     -0.85360990     -0.08560882      6.52059614     -3.29135794     -0.66038274     -4.32636458
    H      0.71017950     -1.14906687      0.92102202      0.77605632     50.44502158    -19.44371895     63.21154448
    H     -0.78259873     -1.17603784      0.43869751      0.70334753      1.83140753     29.93253614      5.50382939
    3
MD iter: 190
    O      0.01294994     -0.86951378     -0.06574337      6.58140993      5.94551737     -5.06552068     10.55331641
    H      0.64456429     -1.06857367      0.66041722      0.70932781    -68.83630415     43.59873651   -145.47323932
    H     -0.85024736     -1.00393073      0.38378061      0.70926227    -25.59597077     36.85660684    -22.14441524
    3
MD iter: 200
    O     -0.00612937     -0.88400738     -0.05611753      6.61328812     -4.15380935     -2.16823740     -2.26215695
    H      0.98904001     -1.02648331      0.62958361      0.71765926     81.04704310     -1.60228228     38.06005945
    H     -0.89168761     -0.81582007      0.26172752      0.66905261    -15.07235294     36.04025919     -2.13036432
